(declare-fun e () String)
(declare-fun g () String)
(declare-fun b () String)
(declare-fun d () String)
(declare-fun a () String)
(declare-fun h () String)
(assert (= (str.++ g "e") (str.++ "h" a d h b)))
(assert (= e (str.++ "h" b h g "g")))
(assert (= d "acd"))

(check-sat)
